78920717369674719625015,4,1,2,04,4,1,2,09,15,1,2,015,6,1,2,09,5,1,2,015,4,1,2,04,5,1,2,06,2,1,2,04,4,1,2,03,13,1,2,07,11,1,2,09,1,1,2,05,7,1,2,015,9,1,2,06,1,1,2,06,9,1,2,013,1,1,2,01,12,1,2,07,13,1,2,03,2,1,2,01,4,1,2,015,7,1,2,013,3,1,2,014,9,1,2,07,11,1,2,06,3,1,2,015,3,1,2,05,14,1,2,012,10,1,2,05,14,1,2,010,7,1,2,02,15,1,2,011,3,1,2,03,10,1,2,09,1,1,2,04,5,1,2,014,15,1,2,011,7,1,2,08,8,1,2,02,2,1,2,08,9,1,2,02,5,1,2,08,15,1,2,015,13,1,2,01,7,1,2,011,10,1,2,03,14,1,2,011,11,1,2,013,10,1,2,010,2,1,2,0